words_hard_train/3935.qaiger
aag 35 15 0 1 20
2
4
8
12
14
18
20
28
30
34
36
44
46
58
66
70
6 3 4
10 7 8
16 13 14
22 19 20
24 17 23
26 10 24
32 29 30
38 35 36
40 33 39
42 26 40
48 45 46
50 42 49
52 47 37
54 15 21
56 52 54
60 56 58
62 31 5
64 60 62
68 65 66
70 51 69
i0 1 x2[6]
i1 2 y1[6]
i2 2 y1[0]
i3 1 x2[1]
i4 2 y1[1]
i5 1 x2[2]
i6 2 y1[2]
i7 1 x2[3]
i8 2 y1[3]
i9 1 x2[5]
i10 2 y1[5]
i11 1 x2[4]
i12 2 y1[4]
i13 1 x2[7]
i14 2 y1[7]
o0 bv[0]
c
simplified
  >
    xor
      1
      2 y1
    and
      1 x2
      abs
        2 y1
