words_hard_train/3935.qaiger.qdimacs
p cnf 35 61
a 1 6 9 14 17 22 29 0
e 2 3 4 5 7 8 10 11 12 13 15 16 18 19 20 21 23 24 25 26 27 28 30 31 32 33 34 35 0
1 -2 3 0
-1 -3 0
2 -3 0
3 -4 5 0
-3 -5 0
4 -5 0
6 -7 8 0
-6 -8 0
7 -8 0
9 -10 11 0
-9 -11 0
10 -11 0
8 11 12 0
-8 -12 0
-11 -12 0
-5 -12 13 0
5 -13 0
12 -13 0
14 -15 16 0
-14 -16 0
15 -16 0
17 -18 19 0
-17 -19 0
18 -19 0
16 19 20 0
-16 -20 0
-19 -20 0
-13 -20 21 0
13 -21 0
20 -21 0
22 -23 24 0
-22 -24 0
23 -24 0
-21 24 25 0
21 -25 0
-24 -25 0
23 18 26 0
-23 -26 0
-18 -26 0
7 10 27 0
-7 -27 0
-10 -27 0
-26 -27 28 0
26 -28 0
27 -28 0
-28 -29 30 0
28 -30 0
29 -30 0
15 2 31 0
-15 -31 0
-2 -31 0
-30 -31 32 0
30 -32 0
31 -32 0
32 -33 34 0
-32 -34 0
33 -34 0
25 34 35 0
-25 -35 0
-34 -35 0
35 0
